language ESSENCE' 1.0

letting jobs = 102
letting horizon = 796
letting resourcesRenew = 2
letting resourcesNonrenew = 2
letting resourceLimits = [63, 58, 544, 537]
letting successors = [[2, 3, 4, 5, 6, 7, 8, 9, 10, 12, 13, 14, 16, 17, 19, 20, 21, 22, 24, 26, 29, 34], [101, 99, 72, 63, 60, 56, 55, 50, 48, 41, 40, 39, 37, 35, 33, 31, 28, 27, 11], [101, 99, 95, 85, 72, 70, 69, 67, 65, 63, 25, 15], [99, 98, 72, 71, 69, 67, 63, 61, 52, 44, 40, 39, 35, 23], [101, 97, 95, 93, 92, 63, 54, 52, 49, 47, 41, 18], [101, 99, 97, 92, 81, 71, 66, 59, 53, 50, 49, 44, 41, 25], [101, 99, 92, 91, 85, 72, 71, 66, 63, 61, 53, 52, 49, 46, 45, 43, 41, 39], [100, 98, 97, 91, 88, 87, 71, 70, 68, 66, 61, 60, 59, 53, 47, 40, 35], [101, 97, 94, 92, 91, 84, 72, 69, 67, 65, 64, 63, 61, 56, 38, 36, 30], [95, 93, 91, 88, 69, 67, 65, 64, 58, 57, 49, 48, 46, 45, 31], [98, 97, 94, 92, 89, 87, 64, 62, 59, 53, 49, 47, 45, 42], [98, 96, 94, 91, 89, 88, 87, 82, 72, 70, 68, 65, 63, 59, 52, 32], [99, 97, 95, 93, 87, 86, 79, 78, 70, 64, 62, 57, 49, 46, 42], [100, 98, 97, 96, 94, 93, 91, 90, 89, 88, 85, 81, 79, 77, 71, 69, 68, 65, 64, 59, 49, 48], [100, 97, 93, 92, 87, 62, 52, 49, 47, 46, 41, 39], [100, 99, 98, 97, 94, 93, 91, 88, 83, 82, 80, 78, 70, 60, 59, 56, 52, 40], [101, 100, 98, 97, 95, 92, 91, 89, 86, 78, 71, 68, 67, 64, 60, 45, 42], [100, 99, 98, 96, 94, 90, 85, 83, 81, 80, 79, 77, 71, 66, 62, 61, 60, 59, 48], [101, 97, 95, 93, 92, 91, 88, 81, 68, 64, 50, 49, 47, 46], [99, 95, 93, 87, 78, 72, 68, 60, 51, 49, 42, 40], [100, 96, 95, 93, 92, 91, 90, 89, 88, 87, 86, 82, 72, 70, 68, 65, 63, 60, 45], [95, 93, 92, 91, 90, 89, 88, 69, 68, 66, 65, 57, 48, 39], [97, 95, 94, 93, 92, 90, 89, 88, 87, 85, 84, 83, 82, 81, 80, 79, 78, 77, 75, 70, 68, 66, 64, 60], [101, 99, 94, 93, 91, 90, 89, 88, 87, 86, 85, 78, 75, 74, 70, 64, 49], [100, 86, 84, 83, 82, 80, 79, 78, 68, 64, 62, 61, 46], [96, 94, 92, 91, 89, 87, 86, 85, 84, 83, 82, 81, 80, 79, 78, 77, 75, 74, 73, 64], [98, 94, 92, 90, 88, 87, 84, 83, 81, 80, 78, 77, 75, 73, 64, 53], [96, 95, 94, 92, 91, 86, 84, 83, 82, 81, 80, 79, 78, 77, 69, 66, 65], [97, 96, 94, 90, 82, 81, 80, 79, 78, 77, 76, 75, 74, 69, 67, 66, 61], [93, 88, 82, 81, 47, 46], [98, 97, 94, 92, 86, 85, 84, 81, 80, 79, 78, 77, 76, 75, 74, 66], [95, 93, 92, 86, 85, 84, 83, 79, 78, 77, 75, 71, 64, 60], [92, 91, 87, 85, 83, 82, 81, 80, 79, 77, 76, 74, 70, 68, 67], [96, 93, 89, 88, 86, 85, 78, 77, 69, 67, 65, 64], [94, 92, 89, 79, 78, 77, 74, 65, 49], [95, 93, 88, 85, 82, 77, 76, 75, 47], [96, 92, 88, 87, 81, 77, 76, 75, 74, 68, 61], [93, 90, 88, 83, 82, 81, 79, 77, 76, 74, 73], [94, 84, 83, 79, 78, 77, 75, 74, 73, 64], [92, 90, 85, 84, 81, 79, 77, 75, 74, 64], [98, 88, 84, 83, 78, 77, 75, 74, 64], [90, 85, 82, 80, 77, 69, 66, 65], [87, 81, 80, 79, 78, 77, 74, 65], [91, 88, 87, 85, 83, 80, 79, 75], [84, 83, 81, 80, 79, 77, 75], [96, 90, 89, 77, 60], [86, 80, 79, 78, 74, 73], [87, 84, 82, 78, 75, 74], [84, 83, 82, 80, 76], [90, 87, 85, 75, 74], [94, 91, 82, 81, 76], [86, 81, 75, 74], [95, 93, 86, 74], [96, 85, 82, 73], [87, 82, 76, 74], [87, 81, 74], [85, 81, 80], [89, 83, 73], [86, 67], [76, 74], [89, 73], [91, 88], [78, 75], [76], [75], [73], [73], [73], [73], [73], [73], [83], [102], [102], [102], [102], [102], [102], [102], [102], [102], [102], [102], [102], [102], [102], [102], [102], [102], [102], [102], [102], [102], [102], [102], [102], [102], [102], [102], [102], [102], []]
letting durations = [[0], [3, 9, 10], [1, 6, 7], [1, 7, 7], [8, 8, 9], [1, 3, 6], [1, 3, 4], [1, 4, 9], [1, 3, 8], [4, 7, 8], [3, 4, 6], [4, 6, 9], [1, 3, 8], [1, 4, 6], [1, 2, 6], [4, 9, 10], [2, 8, 9], [1, 2, 6], [3, 3, 9], [7, 9, 10], [4, 6, 7], [1, 7, 8], [2, 5, 6], [3, 8, 10], [2, 2, 5], [2, 6, 9], [4, 8, 9], [7, 8, 10], [1, 2, 9], [2, 8, 8], [5, 9, 10], [6, 7, 7], [2, 3, 7], [2, 5, 7], [1, 5, 7], [1, 4, 5], [4, 5, 7], [2, 6, 9], [7, 8, 9], [1, 2, 9], [4, 5, 6], [2, 3, 9], [1, 7, 8], [2, 4, 4], [3, 5, 7], [2, 3, 4], [5, 8, 9], [5, 8, 9], [4, 5, 9], [2, 8, 9], [5, 5, 6], [6, 7, 10], [2, 5, 8], [3, 7, 8], [2, 3, 8], [4, 6, 7], [1, 3, 10], [2, 3, 8], [1, 4, 10], [1, 1, 2], [2, 9, 10], [5, 5, 9], [4, 5, 10], [3, 5, 6], [3, 4, 9], [3, 5, 8], [1, 6, 10], [6, 8, 9], [1, 3, 9], [4, 5, 7], [1, 2, 4], [3, 3, 8], [3, 4, 10], [1, 6, 9], [1, 2, 5], [1, 9, 10], [7, 8, 10], [2, 3, 8], [1, 5, 6], [3, 5, 10], [1, 9, 10], [3, 4, 6], [1, 1, 6], [4, 5, 9], [1, 6, 8], [2, 6, 6], [3, 5, 9], [5, 6, 10], [2, 9, 10], [6, 8, 10], [1, 6, 8], [1, 5, 6], [6, 9, 10], [4, 5, 6], [4, 8, 9], [1, 2, 10], [2, 3, 4], [4, 8, 10], [1, 7, 7], [2, 3, 9], [9, 10, 10], [0]]
letting resourceUsage = [[[0, 0, 0, 0]], [[0, 5, 9, 6], [0, 3, 8, 5], [0, 1, 7, 3]], [[0, 3, 7, 1], [4, 0, 7, 2], [4, 0, 7, 1]], [[0, 5, 4, 8], [3, 0, 3, 7], [0, 3, 3, 6]], [[5, 0, 7, 6], [0, 2, 7, 5], [0, 2, 7, 4]], [[4, 0, 9, 5], [0, 2, 7, 3], [3, 0, 7, 3]], [[0, 2, 7, 4], [3, 0, 4, 4], [0, 1, 3, 4]], [[0, 1, 5, 6], [4, 0, 5, 4], [4, 0, 3, 4]], [[0, 2, 6, 3], [0, 1, 4, 2], [0, 1, 1, 1]], [[0, 5, 4, 6], [2, 0, 3, 3], [2, 0, 2, 3]], [[0, 3, 7, 2], [0, 3, 7, 1], [0, 3, 6, 1]], [[0, 5, 9, 8], [0, 3, 8, 7], [2, 0, 7, 6]], [[0, 5, 10, 3], [0, 4, 8, 3], [5, 0, 8, 1]], [[0, 2, 9, 8], [2, 0, 8, 7], [0, 2, 8, 7]], [[5, 0, 9, 5], [0, 1, 4, 5], [0, 1, 2, 4]], [[0, 4, 5, 8], [4, 0, 3, 8], [4, 0, 1, 4]], [[3, 0, 9, 5], [0, 2, 8, 5], [1, 0, 8, 5]], [[5, 0, 6, 5], [0, 3, 5, 5], [5, 0, 5, 4]], [[0, 5, 2, 9], [2, 0, 2, 5], [2, 0, 1, 3]], [[0, 5, 9, 2], [3, 0, 9, 2], [0, 2, 7, 2]], [[0, 4, 8, 9], [3, 0, 8, 8], [0, 3, 8, 4]], [[0, 4, 5, 8], [0, 3, 4, 7], [5, 0, 2, 5]], [[5, 0, 9, 7], [0, 2, 7, 5], [0, 1, 6, 5]], [[2, 0, 5, 6], [0, 2, 3, 4], [1, 0, 2, 2]], [[0, 3, 8, 8], [5, 0, 7, 7], [0, 2, 5, 6]], [[0, 2, 3, 7], [1, 0, 2, 7], [0, 1, 2, 5]], [[0, 5, 8, 8], [0, 4, 8, 8], [0, 4, 7, 8]], [[0, 3, 9, 2], [1, 0, 9, 2], [0, 2, 7, 2]], [[0, 4, 7, 4], [1, 0, 5, 3], [1, 0, 2, 3]], [[2, 0, 2, 9], [2, 0, 1, 7], [0, 4, 1, 4]], [[4, 0, 4, 4], [0, 4, 2, 4], [0, 4, 2, 3]], [[0, 4, 9, 10], [0, 3, 3, 9], [3, 0, 3, 9]], [[3, 0, 2, 5], [1, 0, 1, 3], [0, 1, 1, 3]], [[0, 5, 5, 8], [4, 0, 4, 4], [3, 0, 4, 3]], [[2, 0, 2, 5], [2, 0, 1, 4], [2, 0, 1, 3]], [[0, 4, 10, 4], [0, 3, 9, 4], [0, 3, 8, 4]], [[0, 3, 8, 8], [3, 0, 7, 6], [0, 2, 7, 4]], [[3, 0, 6, 5], [0, 2, 6, 4], [0, 1, 6, 4]], [[0, 5, 9, 7], [2, 0, 9, 5], [1, 0, 9, 5]], [[2, 0, 4, 5], [0, 2, 4, 5], [0, 2, 3, 4]], [[0, 4, 10, 5], [0, 3, 9, 5], [3, 0, 8, 5]], [[3, 0, 4, 8], [0, 3, 3, 6], [0, 2, 2, 2]], [[4, 0, 3, 4], [0, 3, 3, 2], [0, 3, 3, 1]], [[0, 1, 7, 7], [5, 0, 5, 5], [0, 1, 2, 3]], [[0, 5, 5, 9], [1, 0, 4, 9], [0, 5, 4, 9]], [[3, 0, 9, 7], [0, 2, 7, 6], [0, 1, 7, 5]], [[4, 0, 5, 6], [3, 0, 5, 6], [2, 0, 5, 6]], [[3, 0, 10, 3], [2, 0, 7, 3], [2, 0, 6, 3]], [[0, 5, 3, 5], [1, 0, 3, 4], [0, 5, 3, 3]], [[0, 3, 10, 9], [4, 0, 8, 7], [3, 0, 8, 6]], [[5, 0, 7, 5], [0, 1, 7, 5], [0, 1, 7, 4]], [[0, 4, 8, 9], [0, 4, 7, 5], [0, 4, 6, 2]], [[3, 0, 6, 4], [2, 0, 4, 4], [2, 0, 4, 3]], [[2, 0, 6, 7], [1, 0, 5, 6], [1, 0, 5, 5]], [[0, 5, 5, 10], [0, 4, 5, 9], [3, 0, 4, 8]], [[3, 0, 7, 8], [2, 0, 5, 7], [1, 0, 3, 6]], [[0, 2, 5, 4], [2, 0, 5, 3], [1, 0, 5, 2]], [[0, 2, 6, 4], [0, 1, 5, 4], [0, 1, 5, 3]], [[0, 2, 6, 9], [0, 1, 6, 8], [0, 1, 6, 7]], [[0, 5, 4, 10], [3, 0, 4, 6], [1, 0, 2, 4]], [[2, 0, 10, 7], [1, 0, 9, 7], [0, 3, 8, 7]], [[2, 0, 3, 6], [0, 1, 2, 6], [2, 0, 2, 6]], [[5, 0, 2, 9], [4, 0, 2, 9], [0, 1, 1, 9]], [[2, 0, 10, 9], [0, 3, 6, 7], [0, 2, 6, 7]], [[1, 0, 10, 1], [0, 4, 9, 1], [1, 0, 9, 1]], [[5, 0, 6, 7], [0, 3, 6, 7], [2, 0, 6, 7]], [[2, 0, 9, 7], [0, 3, 6, 6], [0, 3, 4, 6]], [[4, 0, 8, 6], [0, 3, 8, 4], [0, 2, 7, 3]], [[0, 2, 10, 8], [2, 0, 8, 7], [0, 1, 7, 6]], [[5, 0, 6, 10], [5, 0, 2, 6], [0, 1, 2, 3]], [[3, 0, 7, 4], [2, 0, 7, 4], [2, 0, 5, 4]], [[4, 0, 7, 10], [0, 1, 6, 9], [0, 1, 6, 8]], [[0, 1, 6, 8], [0, 1, 4, 7], [0, 1, 3, 7]], [[0, 2, 4, 8], [0, 1, 4, 7], [2, 0, 3, 6]], [[0, 3, 6, 3], [4, 0, 6, 3], [2, 0, 4, 3]], [[3, 0, 9, 8], [0, 3, 9, 7], [0, 3, 9, 6]], [[1, 0, 10, 4], [0, 3, 5, 3], [0, 3, 4, 3]], [[4, 0, 3, 10], [4, 0, 3, 7], [0, 2, 1, 6]], [[0, 4, 8, 10], [0, 4, 6, 10], [0, 3, 6, 10]], [[1, 0, 6, 8], [1, 0, 6, 6], [1, 0, 5, 5]], [[4, 0, 10, 6], [0, 3, 9, 5], [2, 0, 9, 3]], [[3, 0, 6, 4], [0, 4, 4, 4], [0, 3, 2, 4]], [[5, 0, 9, 10], [0, 4, 8, 9], [2, 0, 7, 9]], [[0, 4, 7, 4], [0, 4, 5, 2], [0, 4, 2, 2]], [[3, 0, 6, 10], [0, 3, 4, 8], [2, 0, 2, 6]], [[0, 4, 6, 1], [0, 3, 2, 1], [3, 0, 1, 1]], [[0, 3, 4, 5], [2, 0, 3, 3], [0, 1, 3, 3]], [[0, 4, 6, 2], [3, 0, 5, 2], [0, 2, 4, 2]], [[0, 5, 3, 2], [1, 0, 3, 1], [0, 5, 3, 1]], [[0, 5, 2, 6], [2, 0, 2, 6], [0, 4, 1, 3]], [[2, 0, 10, 10], [0, 3, 6, 9], [1, 0, 6, 8]], [[1, 0, 3, 10], [1, 0, 1, 6], [1, 0, 1, 4]], [[0, 3, 2, 5], [0, 3, 2, 4], [0, 3, 1, 4]], [[3, 0, 5, 4], [3, 0, 3, 3], [3, 0, 3, 2]], [[3, 0, 6, 7], [0, 1, 6, 5], [0, 1, 6, 3]], [[0, 3, 2, 1], [4, 0, 1, 1], [2, 0, 1, 1]], [[3, 0, 5, 8], [0, 1, 4, 8], [1, 0, 3, 4]], [[4, 0, 6, 9], [0, 2, 4, 7], [2, 0, 3, 5]], [[3, 0, 7, 8], [0, 4, 6, 8], [1, 0, 6, 8]], [[0, 3, 9, 8], [0, 2, 8, 7], [0, 2, 7, 6]], [[0, 4, 6, 7], [0, 4, 6, 5], [4, 0, 3, 4]], [[0, 0, 0, 0]]]
